# Objective value = 76
WA1n 0
WA1p 0
WA2n 1
WA2p 0
WB1n 0
WB1p 0
WB2n 1
WB2p 0
WC1n 0
WC1p 1
WD1n 1
WD1p 0
WD2n 1
WD2p 0
WE1n 0
WE1p 2
WE2n 0
WE2p 1
WF1n 0
WF1p 4
WG1n 0
WG1p 6
WG2n 0
WG2p 1
WH1n 10
WH1p 0
WH2n 1
WH2p 0
WI1n 10
WI1p 0
WI2n 1
WI2p 0
WJ1n 0
WJ1p 10
WJ2n 0
WJ2p 1
WT1n 0
WT1p 14
WT2n 0
WT2p 1
5 7
a 0
b 0
c 0
d 0
e 1
f 0
g 0
h 1
i 1
j 1
k 1
l 1
m 0
n 0
o 0
p 0
q 1
r 1
s 1
t 1
